Running MiniSat on FULL_RUN_MINISAT\3593875d75d6e836a3ac328c5426c1b5-Break_18_32.xml.cnf... 
============================[ Problem Statistics ]=============================
|                                                                             |
|  Number of variables:         37028                                         |
|  Number of clauses:          187771                                         |
|  Parse time:                   0.29 s                                       |
|                                                                             |
============================[ Search Statistics ]==============================
| Conflicts |          ORIGINAL         |          LEARNT          | Progress |
|           |    Vars  Clauses Literals |    Limit  Clauses Lit/Cl |          |
===============================================================================
|       100 |   37025   187771   432571 |    68849       99     39 |  0.008 % |
|       250 |   37025   187771   432571 |    75734      249     40 |  0.008 % |
|       475 |   37025   187767   432563 |    83307      474     50 |  0.008 % |
|       812 |   37025   187767   432563 |    91638      811     51 |  0.008 % |
|      1318 |   37025   187767   432563 |   100802     1317     54 |  0.008 % |
|      2077 |   37025   187767   432563 |   110882     2076     53 |  0.008 % |
|      3216 |   37025   187767   432563 |   121970     3215     55 |  0.008 % |
|      4924 |   37025   187767   432563 |   134167     4923     59 |  0.008 % |
|      7486 |   37025   187767   432563 |   147584     7485     67 |  0.008 % |
|     11330 |   37025   187767   432563 |   162343    11329     71 |  0.008 % |
|     17096 |   37025   187767   432563 |   178577    17095     80 |  0.008 % |
|     25745 |   37025   187767   432563 |   196435    25744     81 |  0.008 % |
|     38719 |   37025   187767   432563 |   216078    38718     86 |  0.008 % |
|     58180 |   37018   187752   432532 |   237686    58172     87 |  0.027 % |
ERROR: MiniSat process not found for FULL_RUN_MINISAT\3988a60c6e93167763c6fd2a347d5859-Break_08_24.xml.cnf 
Finished MiniSat on FULL_RUN_MINISAT\3988a60c6e93167763c6fd2a347d5859-Break_08_24.xml.cnf